
Gurobi 12.0.2 (win64) logging started Wed Jun  4 16:58:06 2025

Set parameter LogFile to value "C:\Ioana\_uni\honours\slp\algorithm\Main_files\results\others\fatty_acids\Task_017_Sample003_irr_gurobi.log"
Gurobi Optimizer version 12.0.2 build v12.0.2rc0 (win64 - Windows 11.0 (26100.2))

CPU model: Intel(R) Core(TM) Ultra 5 125H, instruction set [SSE2|AVX|AVX2]
Thread count: 14 physical cores, 18 logical processors, using up to 18 threads

Non-default parameters:
TimeLimit  2200

Optimize a model with 47226 rows, 34498 columns and 146685 nonzeros
Model fingerprint: 0x2e8085d3
Variable types: 17253 continuous, 17245 integer (17245 binary)
Coefficient statistics:
  Matrix range     [1e-04, 8e+04]
  Objective range  [2e-05, 1e+01]
  Bounds range     [1e+00, 1e+03]
  RHS range        [1e+00, 1e+00]
Presolve removed 30822 rows and 21545 columns
Presolve time: 0.52s
Presolved: 16404 rows, 12953 columns, 54584 nonzeros
Variable types: 6409 continuous, 6544 integer (6544 binary)
Found heuristic solution: objective 16.9120440

Root relaxation: objective 8.871936e-01, 394 iterations, 0.02 seconds (0.02 work units)

    Nodes    |    Current Node    |     Objective Bounds      |     Work
 Expl Unexpl |  Obj  Depth IntInf | Incumbent    BestBd   Gap | It/Node Time

     0     0    0.88719    0    1   16.91204    0.88719  94.8%     -    0s
H    0     0                       0.8977874    0.88719  1.18%     -    0s
     0     0    0.88719    0    1    0.89779    0.88719  1.18%     -    0s

Explored 1 nodes (394 simplex iterations) in 0.73 seconds (0.48 work units)
Thread count was 18 (of 18 available processors)

Solution count 2: 0.897787 16.912 

Optimal solution found (tolerance 1.00e-04)
Best objective 8.977874463168e-01, best bound 8.977874463168e-01, gap 0.0000%
